NAME : instances/clustered-mixed-tsp/instance-36.tsp
COMMENT : No Comment
TYPE : TSP
DIMENSION: 43
EDGE_WEIGHT_TYPE : EUC_2D
NODE_COORD_SECTION
1 90 879 
2 324 957 
3 116 727 
4 118 56 
5 313 836 
6 974 94 
7 959 617 
8 959 561 
9 816 539 
10 590 148 
11 513 192 
12 590 258 
13 679 392 
14 191 700 
15 361 124 
16 152 47 
17 103 612 
18 794 738 
19 579 181 
20 893 727 
21 57 802 
22 789 403 
23 70 722 
24 760 360 
25 789 348 
26 114 612 
27 -75 835 
28 480 203 
29 778 469 
30 926 551 
31 53 -19 
32 268 744 
33 686 540 
34 488 397 
35 959 562 
36 416 212 
37 13 824 
38 859 239 
39 642 606 
40 930 193 
41 19 133 
42 805 672 
43 35 846 
EOF
